(set-option :print-success false)
(set-logic QF_UF)
(declare-sort x39 0)
(declare-sort x135 0)
(declare-fun x83 () x135)
(declare-fun x33 (x135 x135) x135)
(declare-fun x28 (x135 x135) x135)
(declare-fun x77 () x135)
(declare-fun x139 () x135)
(declare-fun x62 () x135)
(declare-fun x67 () x135)
(assert (let ((x87 (x28 x139 x139)) (x30 (x28 x62 x62)) (x70 (x28 x83 x83)) (x114 (x28 x67 x67)) (x8 (x28 x77 x77))) (or (and (not (= x62 x30)) (and (not (= x87 x62)) (and (and (not (= x8 x62)) (not (= x62 x114))) (not (= x62 x70))))) (or (or (and (not (= x83 x30)) (and (and (and (not (= x83 x8)) (not (= x114 x83))) (not (= x83 x70))) (not (= x83 x87)))) (or (and (not (= x30 x67)) (and (and (not (= x70 x67)) (and (not (= x114 x67)) (not (= x67 x8)))) (not (= x87 x67)))) (and (and (and (not (= x77 x70)) (and (not (= x77 x8)) (not (= x114 x77)))) (not (= x87 x77))) (not (= x77 x30))))) (and (not (= x139 x30)) (and (not (= x87 x139)) (and (not (= x139 x70)) (and (not (= x8 x139)) (not (= x139 x114))))))))))
(assert (and (and (= (x28 x83 x83) x139) (and (= (x28 x62 x139) x67) (= (x28 x77 x77) x83))) (= x62 (x28 x139 x83))))
(assert (or (or (and (not (= x62 (x28 (x28 x139 x62) x139))) (and (and (not (= (x28 (x28 x139 x83) x139) x83)) (and (not (= x67 (x28 (x28 x139 x67) x139))) (not (= x77 (x28 (x28 x139 x77) x139))))) (not (= x139 (x28 (x28 x139 x139) x139))))) (or (and (and (not (= x139 (x28 (x28 x83 x139) x83))) (and (not (= x83 (x28 (x28 x83 x83) x83))) (and (not (= x77 (x28 (x28 x83 x77) x83))) (not (= x67 (x28 (x28 x83 x67) x83)))))) (not (= x62 (x28 (x28 x83 x62) x83)))) (or (and (and (and (not (= (x28 (x28 x67 x83) x67) x83)) (and (not (= (x28 (x28 x67 x67) x67) x67)) (not (= (x28 (x28 x67 x77) x67) x77)))) (not (= x139 (x28 (x28 x67 x139) x67)))) (not (= x62 (x28 (x28 x67 x62) x67)))) (and (and (and (not (= x83 (x28 (x28 x77 x83) x77))) (and (not (= x67 (x28 (x28 x77 x67) x77))) (not (= (x28 (x28 x77 x77) x77) x77)))) (not (= x139 (x28 (x28 x77 x139) x77)))) (not (= x62 (x28 (x28 x77 x62) x77))))))) (and (and (and (and (not (= (x28 (x28 x62 x77) x62) x77)) (not (= x67 (x28 (x28 x62 x67) x62)))) (not (= (x28 (x28 x62 x83) x62) x83))) (not (= (x28 (x28 x62 x139) x62) x139))) (not (= (x28 (x28 x62 x62) x62) x62)))))
(assert (let ((x101 (x28 x67 x62)) (x115 (x28 x62 x67)) (x48 (x28 x62 x139)) (x110 (x28 x62 x62)) (x30 (x28 x77 x139)) (x130 (x28 x77 x62)) (x1 (x28 x83 x83)) (x122 (x28 x83 x77)) (x70 (x28 x77 x67)) (x123 (x28 x67 x83)) (x114 (x28 x77 x77)) (x40 (x28 x67 x139)) (x87 (x28 x77 x83)) (x102 (x28 x139 x77)) (x53 (x28 x139 x139)) (x42 (x28 x139 x62)) (x119 (x28 x139 x83)) (x81 (x28 x62 x83)) (x3 (x28 x83 x62)) (x85 (x28 x67 x77)) (x21 (x28 x62 x77)) (x105 (x28 x139 x67)) (x47 (x28 x67 x67)) (x159 (x28 x83 x139)) (x140 (x28 x83 x67))) (let ((x158 (= x139 x47)) (x141 (= x62 x159)) (x125 (= x139 x1)) (x72 (= x62 x70)) (x50 (= x70 x77)) (x150 (= x21 x62)) (x120 (= x101 x83)) (x75 (= x77 x123)) (x117 (= x122 x83)) (x57 (= x105 x77)) (x94 (= x101 x139)) (x144 (= x67 x110)) (x35 (= x77 x42)) (x41 (= x3 x83)) (x25 (= x102 x67)) (x58 (= x139 x123)) (x127 (= x139 x159)) (x156 (= x139 x81)) (x22 (= x62 x53)) (x97 (= x83 x42)) (x2 (= x67 x53)) (x24 (= x67 x1)) (x109 (= x62 x40)) (x66 (= x139 x3)) (x143 (= x123 x67)) (x55 (= x159 x67)) (x86 (= x67 x48)) (x116 (= x67 x101)) (x11 (= x40 x83)) (x43 (= x47 x67)) (x65 (= x30 x77)) (x16 (= x3 x77)) (x121 (= x83 x47)) (x106 (= x40 x139)) (x95 (= x105 x139)) (x124 (= x130 x139)) (x80 (= x140 x62)) (x29 (= x77 x119)) (x60 (= x87 x77)) (x128 (= x67 x81)) (x151 (= x159 x77)) (x91 (= x42 x67)) (x8 (= x77 x114)) (x108 (= x115 x67)) (x27 (= x42 x62)) (x78 (= x130 x67)) (x52 (= x77 x110)) (x44 (= x77 x122)) (x46 (= x139 x140)) (x74 (= x115 x62)) (x51 (= x123 x62)) (x136 (= x67 x3)) (x149 (= x83 x87)) (x111 (= x1 x62)) (x153 (= x83 x119)) (x103 (= x53 x83)) (x152 (= x139 x53)) (x154 (= x85 x77)) (x10 (= x139 x30)) (x20 (= x159 x83)) (x26 (= x47 x77)) (x63 (= x81 x77)) (x98 (= x123 x83)) (x134 (= x21 x67)) (x4 (= x140 x77)) (x9 (= x70 x83)) (x54 (= x77 x53)) (x73 (= x105 x83)) (x18 (= x114 x83)) (x148 (= x101 x62)) (x68 (= x87 x62)) (x84 (= x139 x110)) (x36 (= x139 x114)) (x92 (= x30 x83)) (x23 (= x77 x21)) (x129 (= x102 x139)) (x61 (= x83 x115)) (x107 (= x48 x77)) (x6 (= x67 x70)) (x34 (= x77 x40)) (x100 (= x105 x67)) (x64 (= x139 x119)) (x49 (= x83 x85)) (x146 (= x83 x102)) (x37 (= x115 x139)) (x45 (= x119 x62)) (x142 (= x62 x114)) (x126 (= x77 x115)) (x88 (= x62 x102)) (x79 (= x48 x83)) (x90 (= x62 x3)) (x137 (= x139 x21)) (x145 (= x67 x140)) (x99 (= x83 x130)) (x89 (= x122 x67)) (x14 (= x1 x77)) (x19 (= x130 x62)) (x71 (= x87 x67)) (x112 (= x122 x139)) (x32 (= x67 x114)) (x118 (= x101 x77)) (x93 (= x87 x139)) (x56 (= x62 x85)) (x5 (= x77 x130)) (x12 (= x1 x83)) (x96 (= x62 x105)) (x76 (= x67 x119)) (x132 (= x30 x67)) (x133 (= x48 x139)) (x138 (= x62 x110)) (x157 (= x62 x48)) (x155 (= x110 x83)) (x17 (= x139 x85)) (x59 (= x83 x21)) (x69 (= x83 x81)) (x113 (= x139 x42)) (x38 (= x67 x85)) (x7 (= x140 x83)) (x104 (= x47 x62)) (x15 (= x62 x81)) (x147 (= x122 x62)) (x13 (= x77 x102)) (x131 (= x30 x62)) (x82 (= x40 x67)) (x31 (= x70 x139))) (and (and (and (and (and (and (and (or (or (or x112 (or x17 x36)) x129) x137) (or (or (or x93 (or x31 x36)) x10) x124)) (and (and (or (or x92 (or (or x9 x18) x149)) x99) (or (or x146 (or (or x18 x49) x117)) x59)) (and (and (or x78 (or x132 (or (or x32 x6) x71))) (or (or (or (or x32 x38) x89) x25) x134)) (and (or (or x13 (or x44 (or x154 x8))) x23) (or (or x65 (or (or x50 x8) x60)) x5))))) (and (or (or (or x68 (or x142 x72)) x131) x19) (or (or x88 (or (or x56 x142) x147)) x150))) (and (and (or (or x109 (or x51 (or x104 x56))) x148) (or (or (or (or x72 x104) x80) x96) x74)) (and (and (and (or (or x73 (or (or x121 x9) x7)) x61) (or (or (or (or x121 x49) x98) x11) x120)) (and (and (or (or (or x4 (or x50 x26)) x57) x126) (or (or (or x75 (or x154 x26)) x34) x118)) (and (or x116 (or x82 (or x143 (or x43 x38)))) (or x108 (or (or x145 (or x43 x6)) x100))))) (and (or x94 (or x106 (or (or x17 x158) x58))) (or x37 (or (or (or x158 x31) x46) x95)))))) (and (and (or (or (or x111 (or x51 x68)) x45) x15) (or (or x141 (or (or x80 x147) x111)) x90)) (and (and (and (and (or (or x76 (or (or x71 x143) x24)) x128) (or (or (or x24 (or x89 x145)) x55) x136)) (and (or x63 (or (or (or x60 x75) x14) x29)) (or (or (or (or x4 x44) x14) x151) x16))) (and (or x41 (or (or (or x7 x117) x12) x20)) (or (or x153 (or (or x149 x98) x12)) x69))) (and (or (or (or (or x93 x58) x125) x64) x156) (or (or (or x125 (or x112 x46)) x127) x66))))) (and (and (or (or (or x45 (or x96 x88)) x22) x27) (or x157 (or x22 (or (or x131 x109) x141)))) (and (and (and (or x97 (or x103 (or x153 (or x73 x146)))) (or (or (or x20 (or x92 x11)) x103) x79)) (and (and (or x91 (or x2 (or (or x25 x100) x76))) (or (or x2 (or x55 (or x82 x132))) x86)) (and (or x35 (or x54 (or x29 (or x13 x57)))) (or x107 (or (or x151 (or x65 x34)) x54))))) (and (or (or (or x64 (or x95 x129)) x152) x113) (or x133 (or x152 (or x127 (or x10 x106)))))))) (and (and (or x138 (or (or (or x148 x19) x90) x27)) (or x138 (or x157 (or (or x150 x74) x15)))) (and (and (or (or (or (or x137 x37) x156) x133) x84) (or x84 (or x113 (or (or x124 x94) x66)))) (and (and (or x155 (or (or (or x120 x99) x41) x97)) (or (or (or (or x61 x59) x69) x79) x155)) (and (and (or x52 (or (or (or x5 x118) x16) x35)) (or x52 (or (or x63 (or x126 x23)) x107))) (and (or (or (or (or x116 x78) x136) x91) x144) (or (or x86 (or x128 (or x134 x108))) x144))))))))))
(assert (let ((x47 (x28 x139 x139)) (x43 (x28 x139 x62)) (x21 (x28 x77 x83)) (x70 (x28 x83 x77)) (x26 (x28 x67 x139)) (x114 (x28 x67 x77)) (x30 (x28 x62 x77)) (x6 (x28 x83 x62)) (x18 (x28 x67 x83)) (x122 (x28 x139 x67)) (x102 (x28 x62 x67)) (x38 (x28 x83 x139)) (x50 (x28 x77 x139)) (x154 (x28 x62 x83)) (x101 (x28 x67 x62)) (x32 (x28 x67 x67)) (x123 (x28 x62 x139)) (x8 (x28 x77 x77)) (x40 (x28 x77 x62)) (x36 (x28 x83 x83)) (x130 (x28 x77 x67)) (x140 (x28 x62 x62)) (x85 (x28 x83 x67)) (x142 (x28 x139 x83)) (x87 (x28 x139 x77))) (and (and (and (and (and (and (and (and (not (= x6 x101)) (and (and (not (= x43 x40)) (and (not (= x101 x40)) (not (= x6 x40)))) (not (= x140 x40)))) (not (= x43 x101))) (not (= x101 x140))) (not (= x6 x43))) (not (= x6 x140))) (not (= x43 x140))) (and (and (and (and (and (and (and (and (and (not (= x85 x32)) (and (and (not (= x130 x122)) (and (not (= x130 x32)) (not (= x85 x130)))) (not (= x102 x130)))) (not (= x32 x122))) (not (= x32 x102))) (not (= x85 x122))) (not (= x102 x85))) (not (= x102 x122))) (and (not (= x30 x87)) (and (not (= x30 x70)) (and (and (not (= x30 x114)) (and (not (= x114 x87)) (and (not (= x70 x114)) (and (not (= x30 x8)) (and (not (= x8 x87)) (and (not (= x8 x114)) (not (= x8 x70)))))))) (not (= x70 x87)))))) (and (and (and (not (= x142 x36)) (and (not (= x154 x18)) (and (and (and (not (= x21 x154)) (and (not (= x142 x21)) (and (not (= x36 x21)) (not (= x18 x21))))) (not (= x18 x36))) (not (= x142 x18))))) (not (= x154 x36))) (not (= x142 x154)))) (and (not (= x123 x47)) (and (not (= x38 x123)) (and (and (and (not (= x26 x47)) (and (and (not (= x50 x123)) (and (not (= x50 x47)) (and (not (= x50 x38)) (not (= x26 x50))))) (not (= x26 x38)))) (not (= x123 x26))) (not (= x38 x47))))))) (and (and (and (and (and (not (= x101 x26)) (and (and (and (and (not (= x32 x26)) (and (and (not (= x101 x114)) (and (and (not (= x114 x32)) (not (= x18 x114))) (not (= x26 x114)))) (not (= x32 x18)))) (not (= x32 x101))) (not (= x18 x26))) (not (= x101 x18)))) (and (not (= x40 x50)) (and (and (and (and (and (not (= x130 x21)) (and (and (not (= x8 x50)) (and (not (= x130 x8)) (not (= x21 x8)))) (not (= x40 x8)))) (not (= x130 x50))) (not (= x130 x40))) (not (= x21 x50))) (not (= x21 x40))))) (and (and (not (= x36 x6)) (and (and (and (not (= x38 x85)) (and (not (= x36 x85)) (and (and (and (not (= x70 x36)) (not (= x70 x85))) (not (= x38 x70))) (not (= x6 x70))))) (not (= x6 x85))) (not (= x38 x36)))) (not (= x38 x6)))) (and (and (and (not (= x142 x47)) (and (and (not (= x47 x122)) (and (not (= x142 x122)) (and (and (and (not (= x142 x87)) (not (= x122 x87))) (not (= x47 x87))) (not (= x87 x43))))) (not (= x43 x122)))) (not (= x142 x43))) (not (= x43 x47)))) (and (and (and (and (not (= x140 x102)) (and (not (= x102 x123)) (and (not (= x102 x154)) (and (and (not (= x123 x30)) (and (not (= x102 x30)) (not (= x30 x154)))) (not (= x140 x30)))))) (not (= x123 x154))) (not (= x140 x154))) (not (= x140 x123)))))))
(assert (not (and (and (and (and (= x139 (x28 x62 x67)) (and (= x62 (x28 x62 x77)) (and (= (x28 x139 x62) x83) (and (= x139 (x28 x139 x139)) (and (and (= (x28 x139 x67) x67) (and (and (= x62 (x28 x83 x62)) (and (and (= x139 (x28 x83 x83)) (and (= (x28 x83 x67) x83) (and (= (x28 x83 x77) x67) (and (= x67 (x28 x67 x62)) (and (= (x28 x67 x139) x83) (and (and (and (= (x28 x67 x77) x139) (and (= x139 (x28 x77 x62)) (and (= x62 (x28 x77 x139)) (and (= (x28 x77 x83) x67) (and (= (x28 x77 x77) x83) (= x77 (x28 x77 x67))))))) (= x62 (x28 x67 x67))) (= (x28 x67 x83) x77))))))) (= (x28 x83 x139) x77))) (= (x28 x139 x77) x77))) (= (x28 x139 x83) x62)))))) (= (x28 x62 x83) x83)) (= x67 (x28 x62 x139))) (= x77 (x28 x62 x62)))))
(assert (or (or (= x139 (x28 x139 x139)) (or (or (= x77 (x28 x77 x77)) (= (x28 x67 x67) x67)) (= x83 (x28 x83 x83)))) (= x62 (x28 x62 x62))))
(assert (let ((x18 (x28 x83 x67)) (x38 (x28 x139 x83)) (x85 (x28 x67 x83)) (x26 (x28 x139 x67)) (x123 (x28 x139 x62)) (x30 (x28 x77 x62)) (x102 (x28 x67 x62)) (x36 (x28 x83 x83)) (x40 (x28 x62 x77)) (x21 (x28 x83 x77)) (x87 (x28 x77 x139)) (x142 (x28 x83 x139)) (x47 (x28 x139 x139)) (x101 (x28 x62 x67)) (x50 (x28 x139 x77)) (x43 (x28 x62 x139)) (x154 (x28 x83 x62)) (x8 (x28 x77 x77)) (x130 (x28 x67 x77)) (x122 (x28 x67 x139)) (x6 (x28 x62 x83)) (x70 (x28 x77 x83)) (x32 (x28 x67 x67)) (x114 (x28 x77 x67)) (x140 (x28 x62 x62))) (and (and (and (and (and (and (and (and (or (or (or (= x8 x83) (or (= x8 x67) (= x8 x77))) (= x139 x8)) (= x8 x62)) (or (= x114 x62) (or (= x139 x114) (or (= x114 x83) (or (= x114 x77) (= x67 x114)))))) (or (or (or (= x70 x83) (or (= x70 x67) (= x77 x70))) (= x139 x70)) (= x62 x70))) (or (or (or (= x83 x87) (or (= x87 x77) (= x87 x67))) (= x87 x139)) (= x87 x62))) (or (= x30 x62) (or (or (= x83 x30) (or (= x67 x30) (= x77 x30))) (= x30 x139)))) (and (or (= x102 x62) (or (= x139 x102) (or (or (= x102 x67) (= x102 x77)) (= x83 x102)))) (and (and (or (or (= x139 x85) (or (= x83 x85) (or (= x85 x67) (= x77 x85)))) (= x62 x85)) (and (or (= x62 x32) (or (= x139 x32) (or (= x83 x32) (or (= x32 x77) (= x32 x67))))) (or (= x130 x62) (or (= x130 x139) (or (= x130 x83) (or (= x130 x77) (= x67 x130))))))) (or (or (= x139 x122) (or (= x83 x122) (or (= x67 x122) (= x77 x122)))) (= x122 x62))))) (and (or (or (or (= x83 x154) (or (= x77 x154) (= x154 x67))) (= x154 x139)) (= x62 x154)) (and (or (= x142 x62) (or (= x139 x142) (or (= x142 x83) (or (= x67 x142) (= x77 x142))))) (and (or (or (= x139 x36) (or (or (= x36 x67) (= x77 x36)) (= x36 x83))) (= x36 x62)) (and (or (or (or (or (= x18 x67) (= x18 x77)) (= x83 x18)) (= x18 x139)) (= x62 x18)) (or (= x62 x21) (or (or (= x21 x83) (or (= x67 x21) (= x21 x77))) (= x139 x21)))))))) (and (and (and (and (or (or (= x139 x26) (or (= x83 x26) (or (= x26 x77) (= x67 x26)))) (= x26 x62)) (or (or (= x139 x50) (or (= x50 x83) (or (= x50 x77) (= x50 x67)))) (= x62 x50))) (or (= x38 x62) (or (= x38 x139) (or (or (= x38 x67) (= x77 x38)) (= x83 x38))))) (or (= x47 x62) (or (or (or (= x47 x67) (= x47 x77)) (= x83 x47)) (= x47 x139)))) (or (= x123 x62) (or (or (= x83 x123) (or (= x123 x77) (= x67 x123))) (= x139 x123))))) (and (and (and (or (or (or (= x83 x6) (or (= x67 x6) (= x77 x6))) (= x139 x6)) (= x62 x6)) (and (or (or (= x139 x40) (or (= x40 x83) (or (= x40 x77) (= x40 x67)))) (= x62 x40)) (or (or (= x139 x101) (or (or (= x101 x77) (= x67 x101)) (= x83 x101))) (= x62 x101)))) (or (= x43 x62) (or (= x139 x43) (or (= x43 x83) (or (= x67 x43) (= x77 x43)))))) (or (= x140 x62) (or (or (or (= x67 x140) (= x140 x77)) (= x140 x83)) (= x139 x140)))))))
(assert (or (and (not (= (x28 x62 x62) x62)) (and (not (= x139 (x28 x62 x139))) (and (and (not (= (x28 x62 x77) x77)) (not (= x67 (x28 x62 x67)))) (not (= (x28 x62 x83) x83))))) (or (or (or (and (not (= (x28 x67 x62) x62)) (and (and (not (= (x28 x67 x83) x83)) (and (not (= x67 (x28 x67 x67))) (not (= x77 (x28 x67 x77))))) (not (= x139 (x28 x67 x139))))) (and (and (not (= x139 (x28 x77 x139))) (and (not (= (x28 x77 x83) x83)) (and (not (= x67 (x28 x77 x67))) (not (= (x28 x77 x77) x77))))) (not (= x62 (x28 x77 x62))))) (and (and (not (= (x28 x83 x139) x139)) (and (and (not (= (x28 x83 x67) x67)) (not (= (x28 x83 x77) x77))) (not (= x83 (x28 x83 x83))))) (not (= x62 (x28 x83 x62))))) (and (not (= x62 (x28 x139 x62))) (and (and (and (not (= x77 (x28 x139 x77))) (not (= x67 (x28 x139 x67)))) (not (= (x28 x139 x83) x83))) (not (= (x28 x139 x139) x139)))))))
(assert (and (or (= x62 (x28 x62 (x28 x62 x62))) (or (or (= (x28 x62 (x28 x62 x83)) x83) (or (= (x28 x62 (x28 x62 x67)) x67) (= (x28 x62 (x28 x62 x77)) x77))) (= (x28 x62 (x28 x62 x139)) x139))) (and (and (or (= x62 (x28 x83 (x28 x83 x62))) (or (or (= (x28 x83 (x28 x83 x83)) x83) (or (= x67 (x28 x83 (x28 x83 x67))) (= (x28 x83 (x28 x83 x77)) x77))) (= (x28 x83 (x28 x83 x139)) x139))) (and (or (= x62 (x28 x67 (x28 x67 x62))) (or (or (or (= (x28 x67 (x28 x67 x67)) x67) (= x77 (x28 x67 (x28 x67 x77)))) (= (x28 x67 (x28 x67 x83)) x83)) (= (x28 x67 (x28 x67 x139)) x139))) (or (= (x28 x77 (x28 x77 x62)) x62) (or (or (or (= x67 (x28 x77 (x28 x77 x67))) (= (x28 x77 (x28 x77 x77)) x77)) (= x83 (x28 x77 (x28 x77 x83)))) (= x139 (x28 x77 (x28 x77 x139))))))) (or (or (or (or (= (x28 x139 (x28 x139 x77)) x77) (= x67 (x28 x139 (x28 x139 x67)))) (= x83 (x28 x139 (x28 x139 x83)))) (= x139 (x28 x139 (x28 x139 x139)))) (= x62 (x28 x139 (x28 x139 x62)))))))
(assert (or (or (and (not (= (x28 x62 x139) x62)) (and (and (not (= x83 (x28 x83 x139))) (and (not (= x67 (x28 x67 x139))) (not (= x77 (x28 x77 x139))))) (not (= x139 (x28 x139 x139))))) (or (or (and (not (= x62 (x28 x62 x77))) (and (not (= (x28 x139 x77) x139)) (and (and (not (= x67 (x28 x67 x77))) (not (= (x28 x77 x77) x77))) (not (= x83 (x28 x83 x77)))))) (and (not (= (x28 x62 x67) x62)) (and (not (= x139 (x28 x139 x67))) (and (and (not (= (x28 x77 x67) x77)) (not (= (x28 x67 x67) x67))) (not (= x83 (x28 x83 x67))))))) (and (and (and (not (= (x28 x83 x83) x83)) (and (not (= x67 (x28 x67 x83))) (not (= (x28 x77 x83) x77)))) (not (= (x28 x139 x83) x139))) (not (= x62 (x28 x62 x83)))))) (and (and (not (= (x28 x139 x62) x139)) (and (not (= x83 (x28 x83 x62))) (and (not (= (x28 x67 x62) x67)) (not (= (x28 x77 x62) x77))))) (not (= (x28 x62 x62) x62)))))
(assert (and (and (not (= x83 x62)) (and (not (= x83 x139)) (and (and (and (not (= x83 x67)) (and (not (= x62 x77)) (and (and (not (= x67 x77)) (not (= x77 x83))) (not (= x139 x77))))) (not (= x139 x67))) (not (= x67 x62))))) (not (= x62 x139))))
(assert (let ((x85 (x28 x83 x67)) (x47 (x28 x83 x62)) (x87 (= x67 (x28 x67 x67))) (x21 (x28 x67 x139)) (x101 (x28 x62 x67)) (x142 (x28 x139 x67)) (x154 (x28 x139 x83)) (x32 (x28 x83 x77)) (x50 (= x139 (x28 x139 x139))) (x140 (= x62 (x28 x62 x62))) (x122 (= x83 (x28 x83 x83))) (x102 (x28 x77 x139)) (x114 (x28 x77 x67)) (x40 (x28 x62 x77)) (x18 (x28 x83 x139)) (x38 (x28 x67 x62)) (x130 (x28 x67 x83)) (x8 (= (x28 x77 x77) x77)) (x70 (x28 x67 x77)) (x30 (x28 x77 x83)) (x36 (x28 x139 x77)) (x43 (x28 x62 x139)) (x123 (x28 x139 x62)) (x6 (x28 x62 x83)) (x26 (x28 x77 x62))) (and (or (or (or (= x123 x139) (or (= x83 x47) (or (= x38 x67) (= x77 x26)))) x140) (or x140 (or (= x139 x43) (or (= x6 x83) (or (= x67 x101) (= x40 x77)))))) (and (and (or (or (or (or x122 (or (= x77 x32) (= x67 x85))) (= x139 x18)) (= x62 x47)) (or (or (or x122 (or (= x130 x67) (= x77 x30))) (= x139 x154)) (= x62 x6))) (and (or (or (= x38 x62) (or (or (or x87 (= x77 x70)) (= x83 x130)) (= x21 x139))) (or (= x62 x101) (or (or (or x87 (= x77 x114)) (= x83 x85)) (= x139 x142)))) (or (or (= x62 x26) (or (= x139 x102) (or (or x8 (= x114 x67)) (= x30 x83)))) (or (= x62 x40) (or (or (= x83 x32) (or (= x67 x70) x8)) (= x36 x139)))))) (or (or (or x50 (or (= x83 x18) (or (= x77 x102) (= x67 x21)))) (= x43 x62)) (or (or x50 (or (or (= x67 x142) (= x77 x36)) (= x83 x154))) (= x123 x62)))))))
(assert (let ((x8 (x28 x77 x77)) (x142 (x28 x139 x83)) (x122 (x28 x83 x83)) (x140 (x28 x62 x62)) (x18 (x28 x139 x67)) (x36 (x28 x67 x139)) (x87 (x28 x67 x67)) (x114 (x28 x67 x77)) (x154 (x28 x83 x139)) (x30 (x28 x83 x77)) (x50 (x28 x139 x139)) (x38 (x28 x77 x62)) (x32 (x28 x83 x67)) (x43 (x28 x139 x62)) (x102 (x28 x139 x77)) (x47 (x28 x62 x67)) (x6 (x28 x62 x139)) (x21 (x28 x77 x139)) (x70 (x28 x77 x67)) (x85 (x28 x67 x83)) (x123 (x28 x67 x62)) (x26 (x28 x62 x77)) (x101 (x28 x83 x62)) (x40 (x28 x62 x83)) (x130 (x28 x77 x83))) (and (and (and (or (or (or (not (= x122 x122)) (or (not (= x130 x30)) (not (= x32 x85)))) (not (= x154 x142))) (not (= x40 x101))) (and (or (not (= x26 x38)) (or (not (= x21 x102)) (or (or (not (= x8 x8)) (not (= x114 x70))) (not (= x130 x30))))) (or (or (not (= x36 x18)) (or (or (not (= x87 x87)) (not (= x114 x70))) (not (= x85 x32)))) (not (= x47 x123))))) (or (or (or (or (not (= x21 x102)) (not (= x18 x36))) (not (= x142 x154))) (not (= x50 x50))) (not (= x6 x43)))) (or (not (= x140 x140)) (or (or (not (= x40 x101)) (or (not (= x123 x47)) (not (= x26 x38)))) (not (= x6 x43)))))))
(assert (let ((x72 (x28 x62 x77)) (x9 (x28 x67 x77)) (x98 (x28 x62 x83)) (x149 (x28 x83 x62)) (x119 (x28 x83 x83)) (x31 (x28 x77 x139)) (x14 (x28 x83 x67)) (x105 (x28 x77 x77)) (x121 (x28 x77 x83)) (x89 (x28 x67 x139)) (x147 (x28 x139 x139)) (x1 (x28 x67 x62)) (x17 (x28 x83 x77)) (x75 (x28 x67 x83)) (x56 (x28 x77 x62)) (x49 (x28 x77 x67)) (x158 (x28 x139 x77)) (x51 (x28 x62 x139)) (x117 (x28 x83 x139)) (x145 (x28 x139 x67)) (x4 (x28 x67 x67)) (x159 (x28 x62 x67)) (x68 (x28 x139 x62)) (x7 (x28 x139 x83)) (x25 (x28 x62 x62))) (let ((x132 (= x4 x83)) (x69 (= x105 x62)) (x47 (= x159 x77)) (x2 (= x83 x14)) (x66 (= x7 x62)) (x124 (= x145 x62)) (x99 (= x49 x62)) (x150 (= x62 x72)) (x64 (= x83 x56)) (x55 (= x121 x83)) (x42 (= x49 x83)) (x100 (= x67 x25)) (x81 (= x119 x67)) (x60 (= x4 x67)) (x129 (= x147 x83)) (x5 (= x139 x119)) (x32 (= x14 x77)) (x137 (= x75 x62)) (x118 (= x158 x139)) (x97 (= x62 x121)) (x157 (= x1 x62)) (x46 (= x67 x145)) (x91 (= x139 x149)) (x92 (= x145 x83)) (x138 (= x62 x25)) (x108 (= x139 x117)) (x84 (= x147 x62)) (x122 (= x77 x119)) (x10 (= x159 x83)) (x15 (= x159 x62)) (x144 (= x51 x139)) (x95 (= x83 x72)) (x102 (= x158 x77)) (x53 (= x9 x83)) (x111 (= x67 x72)) (x125 (= x117 x67)) (x116 (= x139 x1)) (x6 (= x51 x77)) (x86 (= x139 x72)) (x127 (= x98 x83)) (x79 (= x62 x9)) (x37 (= x62 x119)) (x20 (= x83 x7)) (x45 (= x83 x25)) (x156 (= x158 x62)) (x114 (= x9 x77)) (x112 (= x67 x31)) (x27 (= x68 x62)) (x74 (= x56 x62)) (x93 (= x89 x67)) (x146 (= x83 x119)) (x48 (= x75 x83)) (x3 (= x67 x17)) (x16 (= x31 x139)) (x34 (= x67 x149)) (x38 (= x56 x77)) (x58 (= x67 x7)) (x96 (= x83 x68)) (x126 (= x139 x121)) (x76 (= x83 x105)) (x106 (= x83 x1)) (x143 (= x67 x14)) (x52 (= x89 x139)) (x30 (= x77 x17)) (x130 (= x77 x121)) (x18 (= x145 x77)) (x107 (= x139 x75)) (x90 (= x51 x62)) (x26 (= x77 x72)) (x128 (= x139 x147)) (x54 (= x68 x67)) (x19 (= x62 x98)) (x133 (= x31 x62)) (x36 (= x89 x77)) (x13 (= x67 x56)) (x11 (= x89 x83)) (x71 (= x121 x67)) (x136 (= x139 x98)) (x103 (= x117 x83)) (x65 (= x98 x67)) (x70 (= x49 x77)) (x24 (= x75 x67)) (x101 (= x77 x149)) (x123 (= x1 x77)) (x29 (= x67 x1)) (x87 (= x4 x77)) (x152 (= x149 x83)) (x140 (= x77 x25)) (x8 (= x105 x77)) (x41 (= x17 x62)) (x141 (= x139 x49)) (x22 (= x4 x139)) (x110 (= x139 x56)) (x59 (= x68 x139)) (x109 (= x139 x9)) (x85 (= x77 x75)) (x104 (= x67 x9)) (x151 (= x51 x67)) (x94 (= x62 x89)) (x82 (= x17 x83)) (x115 (= x105 x67)) (x120 (= x62 x4)) (x43 (= x77 x68)) (x148 (= x62 x149)) (x154 (= x77 x117)) (x80 (= x147 x67)) (x40 (= x77 x98)) (x134 (= x139 x7)) (x44 (= x67 x49)) (x73 (= x158 x83)) (x113 (= x62 x117)) (x61 (= x139 x25)) (x131 (= x105 x139)) (x63 (= x139 x14)) (x155 (= x14 x62)) (x21 (= x31 x77)) (x50 (= x77 x147)) (x153 (= x83 x31)) (x142 (= x7 x77)) (x57 (= x67 x159)) (x23 (= x17 x139)) (x12 (= x67 x158)) (x88 (= x83 x51)) (x35 (= x145 x139)) (x78 (= x159 x139))) (and (and (or (or (and x61 x61) (or (or (or (and x78 x116) (and x86 x110)) (and x136 x91)) (and x144 x59))) (or (or (or (or (or (or (and x107 x63) (or (and x141 x109) (and x22 x22))) (and x35 x52)) (and x116 x78)) (or (or (or (or (and x131 x131) (and x109 x141)) (and x126 x23)) (and x118 x16)) (and x86 x110))) (or (or (or (and x5 x5) (or (and x126 x23) (and x107 x63))) (and x108 x134)) (and x136 x91))) (or (and x144 x59) (or (and x128 x128) (or (or (and x52 x35) (and x118 x16)) (and x134 x108)))))) (and (and (or (or (or (or (or (or (and x12 x112) (and x46 x93)) (and x58 x125)) (and x80 x80)) (and x151 x54)) (or (or (or (or (or (and x24 x143) (or (and x60 x60) (and x44 x104))) (and x46 x93)) (and x29 x57)) (or (or (or (or (and x104 x44) (and x115 x115)) (and x3 x71)) (and x112 x12)) (and x111 x13))) (or (or (and x58 x125) (or (or (and x3 x71) (and x24 x143)) (and x81 x81))) (and x34 x65)))) (or (and x100 x100) (or (and x151 x54) (or (or (and x57 x29) (and x111 x13)) (and x34 x65))))) (or (or (and x140 x140) (or (and x6 x43) (or (or (and x38 x26) (and x123 x47)) (and x101 x40)))) (or (or (and x6 x43) (or (and x50 x50) (or (and x142 x154) (or (and x18 x36) (and x21 x102))))) (or (or (or (and x38 x26) (or (or (and x130 x30) (or (and x114 x70) (and x8 x8))) (and x102 x21))) (or (and x123 x47) (or (and x36 x18) (or (or (and x114 x70) (and x87 x87)) (and x32 x85))))) (or (or (or (and x122 x122) (or (and x130 x30) (and x32 x85))) (and x154 x142)) (and x101 x40)))))) (or (or (or (and x88 x96) (or (and x129 x129) (or (or (and x92 x11) (and x153 x73)) (and x20 x103)))) (or (or (or (or (or (or (and x42 x53) (and x76 x76)) (and x55 x82)) (and x153 x73)) (and x95 x64)) (or (and x106 x10) (or (and x11 x92) (or (and x48 x2) (or (and x132 x132) (and x42 x53)))))) (or (and x152 x127) (or (or (or (and x48 x2) (and x82 x55)) (and x146 x146)) (and x103 x20))))) (or (and x45 x45) (or (or (or (and x64 x95) (and x10 x106)) (and x152 x127)) (and x88 x96)))))) (or (or (or (or (or (or (or (or (and x79 x99) (and x120 x120)) (and x155 x137)) (and x94 x124)) (and x15 x157)) (or (and x74 x150) (or (and x156 x133) (or (or (and x79 x99) (and x69 x69)) (and x97 x41))))) (or (and x19 x148) (or (and x113 x66) (or (or (and x97 x41) (and x155 x137)) (and x37 x37))))) (or (or (or (and x113 x66) (or (and x133 x156) (and x124 x94))) (and x84 x84)) (and x90 x27))) (or (and x138 x138) (or (and x90 x27) (or (or (and x150 x74) (and x157 x15)) (and x148 x19)))))))))
(check-sat)
(exit)
